db/data/297919495466966571444222024115756909.z3.out
-------------------
2500.078523249
